 
# m11/Gen 
# SCF=(Tight,XQC)
# Integral(Grid=UltraFine)
# IOp(8/10=90, 8/10=1, 5/33=1) Stable=opt

C2H6

0 1
C,-0.7652714924,0.,0.
C,0.7652714924,0.,0.
H,1.1643473724,1.0209355355,0.0000019949
H,1.1643473724,-0.5104694954,0.8841551119
H,1.1643473724,-0.5104660401,-0.8841571069
H,-1.1643473724,-1.0209355355,-0.0000019949
H,-1.1643473724,0.5104660401,0.8841571069
H,-1.1643473724,0.5104694954,-0.8841551119

@./mg3s.gbs



