 
# m11/Gen 
# SCF=(Tight,XQC)
# Integral(Grid=UltraFine)
# IOp(8/10=90, 8/10=1, 5/33=1) Stable=opt

C2H6O

0 1
O
C,1,B1
C,1,B1,2,A1
H,2,B2,1,A2,3,-180.,0
H,3,B2,1,A2,2,-180.,0
H,2,B3,1,A3,4,D1,0
H,3,B3,1,A3,5,-D1,0
H,2,B3,1,A3,4,-D1,0
H,3,B3,1,A3,5,D1,0

B1=1.40986
B2=1.09336
B3=1.1029
A1=112.3117
A2=107.2509
A3=111.8183
D1=-119.2954

@./mg3s.gbs



