 
# m11/Gen 
# SCF=(Tight,XQC)
# Integral(Grid=UltraFine)
# IOp(8/10=90, 8/10=1, 5/33=1) Stable=opt

C4H10O

0 1
O,0.2581838741,0.937874606,0.0407424579
C,1.6365622261,1.0422982793,0.3233044075
H,1.8990698734,2.1004086002,0.2355469898
H,2.2623399434,0.4702401473,-0.3784687165
C,-0.2958120265,-0.3650962082,0.2296077208
H,0.0737268667,-0.770233074,1.1884225371
C,0.0999562654,-1.3221886514,-0.8997878285
C,-1.8070752191,-0.1766021952,0.3188323899
H,-2.3094122994,-1.1343594496,0.4933835016
H,-2.0591701944,0.5065049853,1.1358104054
H,-2.1901489088,0.2507080646,-0.6147505549
H,-0.3461659892,-2.3107435182,-0.7410685375
H,-0.2515839876,-0.9340770207,-1.8625311037
H,1.1853093402,-1.4555173912,-0.960633128
H,1.868776887,0.7036044613,1.346608805

@./mg3s.gbs



