 
# m11/Gen 
# SCF=(Tight,XQC)
# Integral(Grid=UltraFine)
# IOp(8/10=90, 8/10=1, 5/33=1) Stable=opt

iPr

0 2
H,-1.5741282257,0.3384466025,0.
C,-0.4949973207,0.2014373026,0.
C,0.1885698354,-0.059540887,-1.3011394423
C,0.1885698354,-0.059540887,1.3011394423
H,-0.3378996345,0.4075090427,-2.1413392395
H,-0.3378996345,0.4075090427,2.1413392395
H,1.2217611291,0.3159557584,-1.2963791248
H,1.2217611291,0.3159557584,1.2963791248
H,0.256775568,-1.1397546885,-1.5289592366
H,0.256775568,-1.1397546885,1.5289592366

@./mg3s.gbs



